step,time,strain_xx,stress_xx
0,0,0,0
1,0.0002,0.0002,0.794538
2,0.0004,0.0004,1.4702
3,0.0006,0.0006,2.13445
4,0.0008,0.0008,2.79605
5,0.001,0.001,3.45704
6,0.0012,0.0012,4.11788
7,0.0014,0.0014,4.77869
8,0.0016,0.0016,5.43949
9,0.0018,0.0018,6.10029
10,0.002,0.002,6.76109
11,0.0022,0.0022,7.42189
12,0.0024,0.0024,8.08269
13,0.0026,0.0026,8.74349
14,0.0028,0.0028,9.40379
15,0.003,0.003,10.0636
16,0.0032,0.0032,10.7228
17,0.0034,0.0034,11.3814
18,0.0036,0.0036,12.0394
19,0.0038,0.0038,12.6966
20,0.004,0.004,13.353
21,0.0042,0.0042,14.0086
22,0.0044,0.0044,14.6633
23,0.0046,0.0046,15.3171
24,0.0048,0.0048,15.9698
25,0.005,0.005,16.6215
26,0.0052,0.0052,17.2721
27,0.0054,0.0054,17.9216
28,0.0056,0.0056,18.5698
29,0.0058,0.0058,19.2167
30,0.006,0.006,19.8624
31,0.0062,0.0062,20.5067
32,0.0064,0.0064,21.1497
33,0.0066,0.0066,21.7911
34,0.0068,0.0068,22.4311
35,0.007,0.007,23.0696
36,0.0072,0.0072,23.7065
37,0.0074,0.0074,24.3418
38,0.0076,0.0076,24.9755
39,0.0078,0.0078,25.6075
40,0.008,0.008,26.2378
41,0.0082,0.0082,26.8663
42,0.0084,0.0084,27.493
43,0.0086,0.0086,28.118
44,0.0088,0.0088,28.741
45,0.009,0.009,29.3623
46,0.0092,0.0092,29.9816
47,0.0094,0.0094,30.599
48,0.0096,0.0096,31.2144
49,0.0098,0.0098,31.8279
50,0.01,0.01,32.4394
51,0.0102,0.0102,33.0488
52,0.0104,0.0104,33.6563
53,0.0106,0.0106,34.2616
54,0.0108,0.0108,34.8649
55,0.011,0.011,35.4662
56,0.0112,0.0112,36.0653
57,0.0114,0.0114,36.6623
58,0.0116,0.0116,37.2572
59,0.0118,0.0118,37.85
60,0.012,0.012,38.4406
61,0.0122,0.0122,39.0291
62,0.0124,0.0124,39.6154
63,0.0126,0.0126,40.1996
64,0.0128,0.0128,40.7816
65,0.013,0.013,41.3615
66,0.0132,0.0132,41.9391
67,0.0134,0.0134,42.5147
68,0.0136,0.0136,43.088
69,0.0138,0.0138,43.6592
70,0.014,0.014,44.2282
71,0.0142,0.0142,44.7951
72,0.0144,0.0144,45.3598
73,0.0146,0.0146,45.9224
74,0.0148,0.0148,46.4828
75,0.015,0.015,47.0411
76,0.0152,0.0152,47.5973
77,0.0154,0.0154,48.1514
78,0.0156,0.0156,48.7033
79,0.0158,0.0158,49.2532
80,0.016,0.016,49.801
81,0.0162,0.0162,50.3467
82,0.0164,0.0164,50.8903
83,0.0166,0.0166,51.4319
84,0.0168,0.0168,51.9715
85,0.017,0.017,52.509
86,0.0172,0.0172,53.0446
87,0.0174,0.0174,53.5782
88,0.0176,0.0176,54.1098
89,0.0178,0.0178,54.6394
90,0.018,0.018,55.1671
91,0.0182,0.0182,55.6929
92,0.0184,0.0184,56.2168
93,0.0186,0.0186,56.7388
94,0.0188,0.0188,57.2589
95,0.019,0.019,57.7772
96,0.0192,0.0192,58.2937
97,0.0194,0.0194,58.8083
98,0.0196,0.0196,59.3212
99,0.0198,0.0198,59.8323
100,0.02,0.02,60.3416
101,0.0202,0.0202,60.8493
102,0.0204,0.0204,61.3552
103,0.0206,0.0206,61.8594
104,0.0208,0.0208,62.362
105,0.021,0.021,62.8629
106,0.0212,0.0212,63.3622
107,0.0214,0.0214,63.86
108,0.0216,0.0216,64.3561
109,0.0218,0.0218,64.8506
110,0.022,0.022,65.3437
111,0.0222,0.0222,65.8352
112,0.0224,0.0224,66.3252
113,0.0226,0.0226,66.8137
114,0.0228,0.0228,67.3008
115,0.023,0.023,67.7865
116,0.0232,0.0232,68.2707
117,0.0234,0.0234,68.7536
118,0.0236,0.0236,69.235
119,0.0238,0.0238,69.7152
120,0.024,0.024,70.194
121,0.0242,0.0242,70.6715
122,0.0244,0.0244,71.1477
123,0.0246,0.0246,71.6226
124,0.0248,0.0248,72.0963
125,0.025,0.025,72.5688
126,0.0252,0.0252,73.04
127,0.0254,0.0254,73.5101
128,0.0256,0.0256,73.979
129,0.0258,0.0258,74.4467
130,0.026,0.026,74.9133
131,0.0262,0.0262,75.3789
132,0.0264,0.0264,75.8433
133,0.0266,0.0266,76.3066
134,0.0268,0.0268,76.7689
135,0.027,0.027,77.2302
136,0.0272,0.0272,77.6904
137,0.0274,0.0274,78.1496
138,0.0276,0.0276,78.6079
139,0.0278,0.0278,79.0651
140,0.028,0.028,79.5215
141,0.0282,0.0282,79.9769
142,0.0284,0.0284,80.4313
143,0.0286,0.0286,80.8849
144,0.0288,0.0288,81.3376
145,0.029,0.029,81.7895
146,0.0292,0.0292,82.2404
147,0.0294,0.0294,82.6906
148,0.0296,0.0296,83.1399
149,0.0298,0.0298,83.5885
150,0.03,0.03,84.0362
151,0.0302,0.03,83.696
152,0.0304,0.03,83.4789
153,0.0306,0.03,83.2773
154,0.0308,0.03,83.0822
155,0.031,0.03,82.8915
156,0.0312,0.03,82.7046
157,0.0314,0.03,82.5213
158,0.0316,0.03,82.3415
159,0.0318,0.03,82.1651
160,0.032,0.03,81.9919
161,0.0322,0.03,81.8219
162,0.0324,0.03,81.6551
163,0.0326,0.03,81.4912
164,0.0328,0.03,81.3303
165,0.033,0.03,81.1722
166,0.0332,0.03,81.017
167,0.0334,0.03,80.8644
168,0.0336,0.03,80.7144
169,0.0338,0.03,80.5671
170,0.034,0.03,80.4222
171,0.0342,0.03,80.2798
172,0.0344,0.03,80.1397
173,0.0346,0.03,80.002
174,0.0348,0.03,79.8665
175,0.035,0.03,79.7332
176,0.0352,0.03,79.6021
177,0.0354,0.03,79.4731
178,0.0356,0.03,79.3461
179,0.0358,0.03,79.2212
180,0.036,0.03,79.0981
181,0.0362,0.03,78.977
182,0.0364,0.03,78.8578
183,0.0366,0.03,78.7404
184,0.0368,0.03,78.6247
185,0.037,0.03,78.5108
186,0.0372,0.03,78.3986
187,0.0374,0.03,78.2881
188,0.0376,0.03,78.1792
189,0.0378,0.03,78.0719
190,0.038,0.03,77.9661
191,0.0382,0.03,77.8619
192,0.0384,0.03,77.7591
193,0.0386,0.03,77.6578
194,0.0388,0.03,77.5579
195,0.039,0.03,77.4594
196,0.0392,0.03,77.3623
197,0.0394,0.03,77.2665
198,0.0396,0.03,77.1721
199,0.0398,0.03,77.0789
200,0.04,0.03,76.987
201,0.0402,0.03,76.8963
202,0.0404,0.03,76.8068
203,0.0406,0.03,76.7185
204,0.0408,0.03,76.6313
205,0.041,0.03,76.5453
206,0.0412,0.03,76.4604
207,0.0414,0.03,76.3766
208,0.0416,0.03,76.2939
209,0.0418,0.03,76.2122
210,0.042,0.03,76.1316
211,0.0422,0.03,76.052
212,0.0424,0.03,75.9733
213,0.0426,0.03,75.8957
214,0.0428,0.03,75.819
215,0.043,0.03,75.7432
216,0.0432,0.03,75.6684
217,0.0434,0.03,75.5944
218,0.0436,0.03,75.5214
219,0.0438,0.03,75.4492
220,0.044,0.03,75.3779
221,0.0442,0.03,75.3074
222,0.0444,0.03,75.2378
223,0.0446,0.03,75.1689
224,0.0448,0.03,75.1009
225,0.045,0.03,75.0336
226,0.0452,0.03,74.9671
227,0.0454,0.03,74.9014
228,0.0456,0.03,74.8364
229,0.0458,0.03,74.7722
230,0.046,0.03,74.7087
231,0.0462,0.03,74.6458
232,0.0464,0.03,74.5837
233,0.0466,0.03,74.5223
234,0.0468,0.03,74.4615
235,0.047,0.03,74.4014
236,0.0472,0.03,74.342
237,0.0474,0.03,74.2832
238,0.0476,0.03,74.225
239,0.0478,0.03,74.1674
240,0.048,0.03,74.1105
241,0.0482,0.03,74.0541
242,0.0484,0.03,73.9984
243,0.0486,0.03,73.9432
244,0.0488,0.03,73.8886
245,0.049,0.03,73.8346
246,0.0492,0.03,73.7811
247,0.0494,0.03,73.7282
248,0.0496,0.03,73.6758
249,0.0498,0.03,73.6239
250,0.05,0.03,73.5726
251,0.0502,0.03,73.5218
252,0.0504,0.03,73.4715
253,0.0506,0.03,73.4216
254,0.0508,0.03,73.3723
255,0.051,0.03,73.3235
256,0.0512,0.03,73.2751
257,0.0514,0.03,73.2272
258,0.0516,0.03,73.1798
259,0.0518,0.03,73.1328
260,0.052,0.03,73.0863
261,0.0522,0.03,73.0402
262,0.0524,0.03,72.9946
263,0.0526,0.03,72.9494
264,0.0528,0.03,72.9046
265,0.053,0.03,72.8603
266,0.0532,0.03,72.8163
267,0.0534,0.03,72.7728
268,0.0536,0.03,72.7297
269,0.0538,0.03,72.6869
270,0.054,0.03,72.6446
271,0.0542,0.03,72.6026
272,0.0544,0.03,72.5611
273,0.0546,0.03,72.5199
274,0.0548,0.03,72.479
275,0.055,0.03,72.4386
276,0.0552,0.03,72.3985
277,0.0554,0.03,72.3587
278,0.0556,0.03,72.3193
279,0.0558,0.03,72.2803
280,0.056,0.03,72.2416
281,0.0562,0.03,72.2032
282,0.0564,0.03,72.1652
283,0.0566,0.03,72.1275
284,0.0568,0.03,72.0901
285,0.057,0.03,72.053
286,0.0572,0.03,72.0163
287,0.0574,0.03,71.9798
288,0.0576,0.03,71.9437
289,0.0578,0.03,71.9079
290,0.058,0.03,71.8724
291,0.0582,0.03,71.8372
292,0.0584,0.03,71.8022
293,0.0586,0.03,71.7676
294,0.0588,0.03,71.7333
295,0.059,0.03,71.6992
296,0.0592,0.03,71.6654
297,0.0594,0.03,71.6319
298,0.0596,0.03,71.5987
299,0.0598,0.03,71.5657
300,0.06,0.03,71.533
301,0.0602,0.03,71.5006
302,0.0604,0.03,71.4684
303,0.0606,0.03,71.4365
304,0.0608,0.03,71.4048
305,0.061,0.03,71.3734
306,0.0612,0.03,71.3422
307,0.0614,0.03,71.3113
308,0.0616,0.03,71.2806
309,0.0618,0.03,71.2501
310,0.062,0.03,71.2199
311,0.0622,0.03,71.19
312,0.0624,0.03,71.1602
313,0.0626,0.03,71.1307
314,0.0628,0.03,71.1014
315,0.063,0.03,71.0723
316,0.0632,0.03,71.0435
317,0.0634,0.03,71.0149
318,0.0636,0.03,70.9865
319,0.0638,0.03,70.9583
320,0.064,0.03,70.9303
321,0.0642,0.03,70.9025
322,0.0644,0.03,70.8749
323,0.0646,0.03,70.8476
324,0.0648,0.03,70.8204
325,0.065,0.03,70.7934
326,0.0652,0.03,70.7667
327,0.0654,0.03,70.7401
328,0.0656,0.03,70.7137
329,0.0658,0.03,70.6875
330,0.066,0.03,70.6615
331,0.0662,0.03,70.6357
332,0.0664,0.03,70.6101
333,0.0666,0.03,70.5846
334,0.0668,0.03,70.5594
335,0.067,0.03,70.5343
336,0.0672,0.03,70.5094
337,0.0674,0.03,70.4847
338,0.0676,0.03,70.4601
339,0.0678,0.03,70.4357
340,0.068,0.03,70.4115
341,0.0682,0.03,70.3875
342,0.0684,0.03,70.3636
343,0.0686,0.03,70.3399
344,0.0688,0.03,70.3163
345,0.069,0.03,70.2929
346,0.0692,0.03,70.2697
347,0.0694,0.03,70.2466
348,0.0696,0.03,70.2237
349,0.0698,0.03,70.201
350,0.07,0.03,70.1784
351,0.0702,0.03,70.1559
352,0.0704,0.03,70.1336
353,0.0706,0.03,70.1114
354,0.0708,0.03,70.0894
355,0.071,0.03,70.0676
356,0.0712,0.03,70.0459
357,0.0714,0.03,70.0243
358,0.0716,0.03,70.0029
359,0.0718,0.03,69.9816
360,0.072,0.03,69.9604
361,0.0722,0.03,69.9394
362,0.0724,0.03,69.9186
363,0.0726,0.03,69.8978
364,0.0728,0.03,69.8772
365,0.073,0.03,69.8567
366,0.0732,0.03,69.8364
367,0.0734,0.03,69.8162
368,0.0736,0.03,69.7961
369,0.0738,0.03,69.7762
370,0.074,0.03,69.7563
371,0.0742,0.03,69.7366
372,0.0744,0.03,69.717
373,0.0746,0.03,69.6976
374,0.0748,0.03,69.6783
375,0.075,0.03,69.659
376,0.0752,0.03,69.64
377,0.0754,0.03,69.621
378,0.0756,0.03,69.6021
379,0.0758,0.03,69.5834
380,0.076,0.03,69.5648
381,0.0762,0.03,69.5463
382,0.0764,0.03,69.5279
383,0.0766,0.03,69.5096
384,0.0768,0.03,69.4914
385,0.077,0.03,69.4733
386,0.0772,0.03,69.4554
387,0.0774,0.03,69.4375
388,0.0776,0.03,69.4198
389,0.0778,0.03,69.4022
390,0.078,0.03,69.3847
391,0.0782,0.03,69.3672
392,0.0784,0.03,69.3499
393,0.0786,0.03,69.3327
394,0.0788,0.03,69.3156
395,0.079,0.03,69.2986
396,0.0792,0.03,69.2817
397,0.0794,0.03,69.2649
398,0.0796,0.03,69.2481
399,0.0798,0.03,69.2315
400,0.08,0.03,69.215
401,0.0802,0.03,69.1986
402,0.0804,0.03,69.1823
403,0.0806,0.03,69.166
404,0.0808,0.03,69.1499
405,0.081,0.03,69.1338
406,0.0812,0.03,69.1179
407,0.0814,0.03,69.102
408,0.0816,0.03,69.0862
409,0.0818,0.03,69.0706
410,0.082,0.03,69.055
411,0.0822,0.03,69.0395
412,0.0824,0.03,69.024
413,0.0826,0.03,69.0087
414,0.0828,0.03,68.9935
415,0.083,0.03,68.9783
416,0.0832,0.03,68.9632
417,0.0834,0.03,68.9482
418,0.0836,0.03,68.9333
419,0.0838,0.03,68.9185
420,0.084,0.03,68.9037
421,0.0842,0.03,68.8891
422,0.0844,0.03,68.8745
423,0.0846,0.03,68.86
424,0.0848,0.03,68.8456
425,0.085,0.03,68.8312
426,0.0852,0.03,68.817
427,0.0854,0.03,68.8028
428,0.0856,0.03,68.7887
429,0.0858,0.03,68.7746
430,0.086,0.03,68.7607
431,0.0862,0.03,68.7468
432,0.0864,0.03,68.733
433,0.0866,0.03,68.7192
434,0.0868,0.03,68.7056
435,0.087,0.03,68.6923
436,0.0872,0.03,68.6787
437,0.0874,0.03,68.6652
438,0.0876,0.03,68.6519
439,0.0878,0.03,68.6386
440,0.088,0.03,68.6253
441,0.0882,0.03,68.6121
442,0.0884,0.03,68.599
443,0.0886,0.03,68.586
444,0.0888,0.03,68.5731
445,0.089,0.03,68.5602
446,0.0892,0.03,68.5473
447,0.0894,0.03,68.5346
448,0.0896,0.03,68.5219
449,0.0898,0.03,68.5092
450,0.09,0.03,68.4967
451,0.0902,0.03,68.4842
452,0.0904,0.03,68.4717
453,0.0906,0.03,68.4593
454,0.0908,0.03,68.447
455,0.091,0.03,68.4348
456,0.0912,0.03,68.4226
457,0.0914,0.03,68.4105
458,0.0916,0.03,68.3984
459,0.0918,0.03,68.3864
460,0.092,0.03,68.3744
461,0.0922,0.03,68.3626
462,0.0924,0.03,68.3507
463,0.0926,0.03,68.339
464,0.0928,0.03,68.3273
465,0.093,0.03,68.3156
466,0.0932,0.03,68.304
467,0.0934,0.03,68.2925
468,0.0936,0.03,68.281
469,0.0938,0.03,68.2696
470,0.094,0.03,68.2582
471,0.0942,0.03,68.2469
472,0.0944,0.03,68.2356
473,0.0946,0.03,68.2244
474,0.0948,0.03,68.2133
475,0.095,0.03,68.2022
476,0.0952,0.03,68.1912
477,0.0954,0.03,68.1802
478,0.0956,0.03,68.1692
479,0.0958,0.03,68.1584
480,0.096,0.03,68.1475
481,0.0962,0.03,68.1367
482,0.0964,0.03,68.126
483,0.0966,0.03,68.1153
484,0.0968,0.03,68.1047
485,0.097,0.03,68.0942
486,0.0972,0.03,68.0836
487,0.0974,0.03,68.0732
488,0.0976,0.03,68.0627
489,0.0978,0.03,68.0524
490,0.098,0.03,68.042
491,0.0982,0.03,68.0318
492,0.0984,0.03,68.0215
493,0.0986,0.03,68.0113
494,0.0988,0.03,68.0012
495,0.099,0.03,67.9911
496,0.0992,0.03,67.9811
497,0.0994,0.03,67.9711
498,0.0996,0.03,67.9611
499,0.0998,0.03,67.9512
500,0.1,0.03,67.9414
