step,time,strain_xx,stress_xx
0,0,0,0
1,0.0002,0.0002,0.794538
2,0.0004,0.0004,1.4702
3,0.0006,0.0006,2.13445
4,0.0008,0.0008,2.79605
5,0.001,0.001,3.45704
6,0.0012,0.0012,4.11788
7,0.0014,0.0014,4.77869
8,0.0016,0.0016,5.43949
9,0.0018,0.0018,6.10029
10,0.002,0.002,6.76109
11,0.0022,0.0022,7.42189
12,0.0024,0.0024,8.08269
13,0.0026,0.0026,8.74349
14,0.0028,0.0028,9.40429
15,0.003,0.003,10.0651
16,0.0032,0.0032,10.7259
17,0.0034,0.0034,11.3867
18,0.0036,0.0036,12.0475
19,0.0038,0.0038,12.7083
20,0.004,0.004,13.3691
21,0.0042,0.0042,14.0299
22,0.0044,0.0044,14.6907
23,0.0046,0.0046,15.3515
24,0.0048,0.0048,16.0123
25,0.005,0.005,16.6731
26,0.0052,0.0052,17.3339
27,0.0054,0.0054,17.9947
28,0.0056,0.0056,18.6555
29,0.0058,0.0058,19.3163
30,0.006,0.006,19.9771
31,0.0062,0.0062,20.6379
32,0.0064,0.0064,21.2987
33,0.0066,0.0066,21.9595
34,0.0068,0.0068,22.6203
35,0.007,0.007,23.2811
36,0.0072,0.0072,23.9419
37,0.0074,0.0074,24.6027
38,0.0076,0.0076,25.2635
39,0.0078,0.0078,25.9243
40,0.008,0.008,26.5849
41,0.0082,0.0082,27.2449
42,0.0084,0.0084,27.9046
43,0.0086,0.0086,28.5638
44,0.0088,0.0088,29.2225
45,0.009,0.009,29.8807
46,0.0092,0.0092,30.5384
47,0.0094,0.0094,31.1956
48,0.0096,0.0096,31.8522
49,0.0098,0.0098,32.5083
50,0.01,0.01,33.1638
51,0.0102,0.0102,33.8186
52,0.0104,0.0104,34.4729
53,0.0106,0.0106,35.1265
54,0.0108,0.0108,35.7794
55,0.011,0.011,36.4317
56,0.0112,0.0112,37.0833
57,0.0114,0.0114,37.7342
58,0.0116,0.0116,38.3844
59,0.0118,0.0118,39.0338
60,0.012,0.012,39.6824
61,0.0122,0.0122,40.3303
62,0.0124,0.0124,40.9774
63,0.0126,0.0126,41.6237
64,0.0128,0.0128,42.2692
65,0.013,0.013,42.9139
66,0.0132,0.0132,43.5577
67,0.0134,0.0134,44.2006
68,0.0136,0.0136,44.8427
69,0.0138,0.0138,45.4839
70,0.014,0.014,46.1241
71,0.0142,0.0142,46.7635
72,0.0144,0.0144,47.4019
73,0.0146,0.0146,48.0394
74,0.0148,0.0148,48.6759
75,0.015,0.015,49.3115
76,0.0152,0.0152,49.9461
77,0.0154,0.0154,50.5797
78,0.0156,0.0156,51.2123
79,0.0158,0.0158,51.8438
80,0.016,0.016,52.4744
81,0.0162,0.0162,53.1039
82,0.0164,0.0164,53.7323
83,0.0166,0.0166,54.3597
84,0.0168,0.0168,54.986
85,0.017,0.017,55.6113
86,0.0172,0.0172,56.2355
87,0.0174,0.0174,56.8585
88,0.0176,0.0176,57.4805
89,0.0178,0.0178,58.1013
90,0.018,0.018,58.721
91,0.0182,0.0182,59.3396
92,0.0184,0.0184,59.957
93,0.0186,0.0186,60.5733
94,0.0188,0.0188,61.1885
95,0.019,0.019,61.8025
96,0.0192,0.0192,62.4153
97,0.0194,0.0194,63.0269
98,0.0196,0.0196,63.6373
99,0.0198,0.0198,64.2466
100,0.02,0.02,64.8547
101,0.0202,0.0202,65.4615
102,0.0204,0.0204,66.0672
103,0.0206,0.0206,66.6717
104,0.0208,0.0208,67.2749
105,0.021,0.021,67.8769
106,0.0212,0.0212,68.4777
107,0.0214,0.0214,69.0773
108,0.0216,0.0216,69.6756
109,0.0218,0.0218,70.2727
110,0.022,0.022,70.8686
111,0.0222,0.0222,71.4632
112,0.0224,0.0224,72.0566
113,0.0226,0.0226,72.6487
114,0.0228,0.0228,73.2396
115,0.023,0.023,73.8292
116,0.0232,0.0232,74.4176
117,0.0234,0.0234,75.0047
118,0.0236,0.0236,75.5906
119,0.0238,0.0238,76.1752
120,0.024,0.024,76.7586
121,0.0242,0.0242,77.3407
122,0.0244,0.0244,77.9216
123,0.0246,0.0246,78.5011
124,0.0248,0.0248,79.0795
125,0.025,0.025,79.6565
126,0.0252,0.0252,80.2324
127,0.0254,0.0254,80.8069
128,0.0256,0.0256,81.3802
129,0.0258,0.0258,81.9523
130,0.026,0.026,82.5231
131,0.0262,0.0262,83.0926
132,0.0264,0.0264,83.6609
133,0.0266,0.0266,84.228
134,0.0268,0.0268,84.7938
135,0.027,0.027,85.3583
136,0.0272,0.0272,85.9216
137,0.0274,0.0274,86.4837
138,0.0276,0.0276,87.0446
139,0.0278,0.0278,87.6042
140,0.028,0.028,88.1625
141,0.0282,0.0282,88.7197
142,0.0284,0.0284,89.2756
143,0.0286,0.0286,89.8303
144,0.0288,0.0288,90.3838
145,0.029,0.029,90.9361
146,0.0292,0.0292,91.4871
147,0.0294,0.0294,92.037
148,0.0296,0.0296,92.5857
149,0.0298,0.0298,93.1331
150,0.03,0.03,93.6794
151,0.0302,0.03,93.4331
152,0.0304,0.03,93.3066
153,0.0306,0.03,93.1926
154,0.0308,0.03,93.0821
155,0.031,0.03,92.9732
156,0.0312,0.03,92.8654
157,0.0314,0.03,92.7584
158,0.0316,0.03,92.6524
159,0.0318,0.03,92.5473
160,0.032,0.03,92.4431
161,0.0322,0.03,92.3397
162,0.0324,0.03,92.2372
163,0.0326,0.03,92.1355
164,0.0328,0.03,92.0347
165,0.033,0.03,91.9347
166,0.0332,0.03,91.8355
167,0.0334,0.03,91.7371
168,0.0336,0.03,91.6395
169,0.0338,0.03,91.5427
170,0.034,0.03,91.4466
171,0.0342,0.03,91.3513
172,0.0344,0.03,91.2568
173,0.0346,0.03,91.1631
174,0.0348,0.03,91.07
175,0.035,0.03,90.9778
176,0.0352,0.03,90.8862
177,0.0354,0.03,90.7953
178,0.0356,0.03,90.7052
179,0.0358,0.03,90.6157
180,0.036,0.03,90.527
181,0.0362,0.03,90.4389
182,0.0364,0.03,90.3515
183,0.0366,0.03,90.2648
184,0.0368,0.03,90.1787
185,0.037,0.03,90.0933
186,0.0372,0.03,90.0085
187,0.0374,0.03,89.9244
188,0.0376,0.03,89.8409
189,0.0378,0.03,89.758
190,0.038,0.03,89.6757
191,0.0382,0.03,89.5941
192,0.0384,0.03,89.513
193,0.0386,0.03,89.4326
194,0.0388,0.03,89.3527
195,0.039,0.03,89.2734
196,0.0392,0.03,89.1947
197,0.0394,0.03,89.1166
198,0.0396,0.03,89.039
199,0.0398,0.03,88.962
200,0.04,0.03,88.8856
201,0.0402,0.03,88.8097
202,0.0404,0.03,88.7343
203,0.0406,0.03,88.6595
204,0.0408,0.03,88.5852
205,0.041,0.03,88.5114
206,0.0412,0.03,88.4382
207,0.0414,0.03,88.3654
208,0.0416,0.03,88.2932
209,0.0418,0.03,88.2215
210,0.042,0.03,88.1503
211,0.0422,0.03,88.0796
212,0.0424,0.03,88.0093
213,0.0426,0.03,87.9396
214,0.0428,0.03,87.8703
215,0.043,0.03,87.8015
216,0.0432,0.03,87.7331
217,0.0434,0.03,87.6653
218,0.0436,0.03,87.5979
219,0.0438,0.03,87.5309
220,0.044,0.03,87.4644
221,0.0442,0.03,87.3983
222,0.0444,0.03,87.3327
223,0.0446,0.03,87.2675
224,0.0448,0.03,87.2028
225,0.045,0.03,87.1385
226,0.0452,0.03,87.0746
227,0.0454,0.03,87.0111
228,0.0456,0.03,86.948
229,0.0458,0.03,86.8854
230,0.046,0.03,86.8232
231,0.0462,0.03,86.7613
232,0.0464,0.03,86.6999
233,0.0466,0.03,86.6389
234,0.0468,0.03,86.5782
235,0.047,0.03,86.518
236,0.0472,0.03,86.4581
237,0.0474,0.03,86.3986
238,0.0476,0.03,86.3395
239,0.0478,0.03,86.2808
240,0.048,0.03,86.2224
241,0.0482,0.03,86.1644
242,0.0484,0.03,86.1068
243,0.0486,0.03,86.0495
244,0.0488,0.03,85.9926
245,0.049,0.03,85.9361
246,0.0492,0.03,85.8799
247,0.0494,0.03,85.824
248,0.0496,0.03,85.7685
249,0.0498,0.03,85.7134
250,0.05,0.03,85.6585
251,0.0502,0.03,85.604
252,0.0504,0.03,85.5499
253,0.0506,0.03,85.496
254,0.0508,0.03,85.4425
255,0.051,0.03,85.3894
256,0.0512,0.03,85.3365
257,0.0514,0.03,85.284
258,0.0516,0.03,85.2317
259,0.0518,0.03,85.1798
260,0.052,0.03,85.1282
261,0.0522,0.03,85.0769
262,0.0524,0.03,85.0259
263,0.0526,0.03,84.9752
264,0.0528,0.03,84.9249
265,0.053,0.03,84.8748
266,0.0532,0.03,84.825
267,0.0534,0.03,84.7755
268,0.0536,0.03,84.7262
269,0.0538,0.03,84.6773
270,0.054,0.03,84.6287
271,0.0542,0.03,84.5803
272,0.0544,0.03,84.5322
273,0.0546,0.03,84.4844
274,0.0548,0.03,84.4368
275,0.055,0.03,84.3896
276,0.0552,0.03,84.3426
277,0.0554,0.03,84.2959
278,0.0556,0.03,84.2494
279,0.0558,0.03,84.2032
280,0.056,0.03,84.1573
281,0.0562,0.03,84.1116
282,0.0564,0.03,84.0662
283,0.0566,0.03,84.021
284,0.0568,0.03,83.9761
285,0.057,0.03,83.9314
286,0.0572,0.03,83.887
287,0.0574,0.03,83.8428
288,0.0576,0.03,83.7989
289,0.0578,0.03,83.7552
290,0.058,0.03,83.7118
291,0.0582,0.03,83.6686
292,0.0584,0.03,83.6256
293,0.0586,0.03,83.5829
294,0.0588,0.03,83.5404
295,0.059,0.03,83.4981
296,0.0592,0.03,83.4561
297,0.0594,0.03,83.4143
298,0.0596,0.03,83.3727
299,0.0598,0.03,83.3313
300,0.06,0.03,83.2902
301,0.0602,0.03,83.2493
302,0.0604,0.03,83.2086
303,0.0606,0.03,83.1681
304,0.0608,0.03,83.1278
305,0.061,0.03,83.0878
306,0.0612,0.03,83.0479
307,0.0614,0.03,83.0083
308,0.0616,0.03,82.9689
309,0.0618,0.03,82.9297
310,0.062,0.03,82.8907
311,0.0622,0.03,82.8519
312,0.0624,0.03,82.8133
313,0.0626,0.03,82.7748
314,0.0628,0.03,82.7366
315,0.063,0.03,82.6986
316,0.0632,0.03,82.6608
317,0.0634,0.03,82.6232
318,0.0636,0.03,82.5858
319,0.0638,0.03,82.5486
320,0.064,0.03,82.5115
321,0.0642,0.03,82.4747
322,0.0644,0.03,82.438
323,0.0646,0.03,82.4015
324,0.0648,0.03,82.3652
325,0.065,0.03,82.3291
326,0.0652,0.03,82.2932
327,0.0654,0.03,82.2575
328,0.0656,0.03,82.2219
329,0.0658,0.03,82.1865
330,0.066,0.03,82.1513
331,0.0662,0.03,82.1163
332,0.0664,0.03,82.0814
333,0.0666,0.03,82.0467
334,0.0668,0.03,82.0122
335,0.067,0.03,81.9779
336,0.0672,0.03,81.9437
337,0.0674,0.03,81.9097
338,0.0676,0.03,81.8758
339,0.0678,0.03,81.8422
340,0.068,0.03,81.8087
341,0.0682,0.03,81.7753
342,0.0684,0.03,81.7421
343,0.0686,0.03,81.7091
344,0.0688,0.03,81.6763
345,0.069,0.03,81.6435
346,0.0692,0.03,81.611
347,0.0694,0.03,81.5786
348,0.0696,0.03,81.5464
349,0.0698,0.03,81.5143
350,0.07,0.03,81.4824
351,0.0702,0.03,81.4506
352,0.0704,0.03,81.419
353,0.0706,0.03,81.3875
354,0.0708,0.03,81.3562
355,0.071,0.03,81.325
356,0.0712,0.03,81.294
357,0.0714,0.03,81.2631
358,0.0716,0.03,81.2324
359,0.0718,0.03,81.2018
360,0.072,0.03,81.1713
361,0.0722,0.03,81.141
362,0.0724,0.03,81.1109
363,0.0726,0.03,81.0808
364,0.0728,0.03,81.051
365,0.073,0.03,81.0212
366,0.0732,0.03,80.9916
367,0.0734,0.03,80.9621
368,0.0736,0.03,80.9328
369,0.0738,0.03,80.9036
370,0.074,0.03,80.8745
371,0.0742,0.03,80.8456
372,0.0744,0.03,80.8168
373,0.0746,0.03,80.7881
374,0.0748,0.03,80.7596
375,0.075,0.03,80.7312
376,0.0752,0.03,80.7029
377,0.0754,0.03,80.6747
378,0.0756,0.03,80.6467
379,0.0758,0.03,80.6188
380,0.076,0.03,80.591
381,0.0762,0.03,80.5634
382,0.0764,0.03,80.5359
383,0.0766,0.03,80.5085
384,0.0768,0.03,80.4812
385,0.077,0.03,80.454
386,0.0772,0.03,80.427
387,0.0774,0.03,80.4001
388,0.0776,0.03,80.3733
389,0.0778,0.03,80.3466
390,0.078,0.03,80.32
391,0.0782,0.03,80.2936
392,0.0784,0.03,80.2672
393,0.0786,0.03,80.241
394,0.0788,0.03,80.2149
395,0.079,0.03,80.1889
396,0.0792,0.03,80.1631
397,0.0794,0.03,80.1373
398,0.0796,0.03,80.1116
399,0.0798,0.03,80.0861
400,0.08,0.03,80.0607
401,0.0802,0.03,80.0354
402,0.0804,0.03,80.0101
403,0.0806,0.03,79.985
404,0.0808,0.03,79.9601
405,0.081,0.03,79.9352
406,0.0812,0.03,79.9104
407,0.0814,0.03,79.8857
408,0.0816,0.03,79.8611
409,0.0818,0.03,79.8367
410,0.082,0.03,79.8123
411,0.0822,0.03,79.7881
412,0.0824,0.03,79.7639
413,0.0826,0.03,79.7399
414,0.0828,0.03,79.7159
415,0.083,0.03,79.6921
416,0.0832,0.03,79.6683
417,0.0834,0.03,79.6446
418,0.0836,0.03,79.6211
419,0.0838,0.03,79.5976
420,0.084,0.03,79.5743
421,0.0842,0.03,79.551
422,0.0844,0.03,79.5279
423,0.0846,0.03,79.5048
424,0.0848,0.03,79.4818
425,0.085,0.03,79.459
426,0.0852,0.03,79.4362
427,0.0854,0.03,79.4135
428,0.0856,0.03,79.3909
429,0.0858,0.03,79.3684
430,0.086,0.03,79.346
431,0.0862,0.03,79.3237
432,0.0864,0.03,79.3014
433,0.0866,0.03,79.2793
434,0.0868,0.03,79.2572
435,0.087,0.03,79.2353
436,0.0872,0.03,79.2134
437,0.0874,0.03,79.1916
438,0.0876,0.03,79.1699
439,0.0878,0.03,79.1483
440,0.088,0.03,79.1268
441,0.0882,0.03,79.1054
442,0.0884,0.03,79.084
443,0.0886,0.03,79.0628
444,0.0888,0.03,79.0416
445,0.089,0.03,79.0205
446,0.0892,0.03,78.9995
447,0.0894,0.03,78.9786
448,0.0896,0.03,78.9577
449,0.0898,0.03,78.937
450,0.09,0.03,78.9163
451,0.0902,0.03,78.8957
452,0.0904,0.03,78.8752
453,0.0906,0.03,78.8548
454,0.0908,0.03,78.8344
455,0.091,0.03,78.8142
456,0.0912,0.03,78.794
457,0.0914,0.03,78.7738
458,0.0916,0.03,78.7538
459,0.0918,0.03,78.7339
460,0.092,0.03,78.714
461,0.0922,0.03,78.6942
462,0.0924,0.03,78.6744
463,0.0926,0.03,78.6548
464,0.0928,0.03,78.6352
465,0.093,0.03,78.6157
466,0.0932,0.03,78.5963
467,0.0934,0.03,78.577
468,0.0936,0.03,78.5577
469,0.0938,0.03,78.5385
470,0.094,0.03,78.5194
471,0.0942,0.03,78.5003
472,0.0944,0.03,78.4813
473,0.0946,0.03,78.4624
474,0.0948,0.03,78.4436
475,0.095,0.03,78.4248
476,0.0952,0.03,78.4061
477,0.0954,0.03,78.3875
478,0.0956,0.03,78.369
479,0.0958,0.03,78.3505
480,0.096,0.03,78.3321
481,0.0962,0.03,78.3137
482,0.0964,0.03,78.2954
483,0.0966,0.03,78.2772
484,0.0968,0.03,78.2591
485,0.097,0.03,78.241
486,0.0972,0.03,78.223
487,0.0974,0.03,78.2051
488,0.0976,0.03,78.1872
489,0.0978,0.03,78.1694
490,0.098,0.03,78.1517
491,0.0982,0.03,78.134
492,0.0984,0.03,78.1164
493,0.0986,0.03,78.0989
494,0.0988,0.03,78.0814
495,0.099,0.03,78.064
496,0.0992,0.03,78.0466
497,0.0994,0.03,78.0294
498,0.0996,0.03,78.0121
499,0.0998,0.03,77.995
500,0.1,0.03,77.9779
